(set-info :smt-lib-version 2.6)
(set-logic UF)
(set-info :source |
Generated by: Andrew Reynolds
Generated on: 2017-04-28
Generator: Sledgehammer, converted to v2.6 by CVC4
Application: Verfication goals in Isabelle
Target solver: CVC4, Z3
Publications: "A Decision Procedure for (Co)Datatypes" by Andrew Reynolds and Jasmin Blanchette, CADE 2015.
|)
(set-info :license "https://creativecommons.org/licenses/by/4.0/")
(set-info :category "industrial")
(set-info :status unknown)


(declare-sort A$ 0)
(declare-sort Nat$ 0)
(declare-sort Nat_nat_fun$ 0)
(declare-sort Nat_bool_fun$ 0)
(declare-sort Enat_bool_fun$ 0)
(declare-sort Enat_enat_fun$ 0)
(declare-sort A_llist_enat_fun$ 0)
(declare-sort Nat_nat_bool_fun_fun$ 0)
(declare-sort Enat_enat_bool_fun_fun$ 0)
(declare-sort A_llist$ 0)
(declare-fun lNil$ () A_llist$)
(declare-fun lhd$ (A_llist$) A$)
(declare-fun ltl$ (A_llist$) A_llist$)
(declare-fun lCons$ (A$ A_llist$) A_llist$)
(declare-sort Nat_option$ 0)
(declare-sort Enat$ 0)
(declare-fun none$ () Nat_option$)
(declare-fun the$ (Nat_option$) Nat$)
(declare-fun some$ (Nat$) Nat_option$)
(declare-fun rep_enat$ (Enat$) Nat_option$)
(declare-fun abs_enat$ (Nat_option$) Enat$)
(declare-fun m$ () Enat$)
(declare-fun n$ () Nat$)
(declare-fun xs$ () A_llist$)
(declare-fun enat$ (Nat$) Enat$)
(declare-fun less$ (Enat$) Enat_bool_fun$)
(declare-fun plus$ (Enat$ Enat$) Enat$)
(declare-fun size$ (Enat$) Nat$)
(declare-fun zero$ () Nat$)
(declare-fun ldrop$ (Enat$ A_llist$) A_llist$)
(declare-fun less$a (Nat$) Nat_bool_fun$)
(declare-fun ltake$ (Enat$ A_llist$) A_llist$)
(declare-fun minus$ (Enat$) Enat_enat_fun$)
(declare-fun plus$a (Nat$) Nat_nat_fun$)
(declare-fun zero$a () Enat$)
(declare-fun ldropn$ (Nat$ A_llist$) A_llist$)
(declare-fun minus$a (Nat$) Nat_nat_fun$)
(declare-fun fun_app$ (Enat_enat_fun$ Enat$) Enat$)
(declare-fun lappend$ (A_llist$ A_llist$) A_llist$)
(declare-fun less_eq$ (Enat$) Enat_bool_fun$)
(declare-fun llength$ () A_llist_enat_fun$)
(declare-fun fun_app$a (A_llist_enat_fun$ A_llist$) Enat$)
(declare-fun fun_app$b (Nat_nat_fun$ Nat$) Nat$)
(declare-fun fun_app$c (Enat_bool_fun$ Enat$) Bool)
(declare-fun fun_app$d (Nat_bool_fun$ Nat$) Bool)
(declare-fun fun_app$e (Enat_enat_bool_fun_fun$ Enat$) Enat_bool_fun$)
(declare-fun fun_app$f (Nat_nat_bool_fun_fun$ Nat$) Nat_bool_fun$)
(declare-fun less_eq$a (Nat$) Nat_bool_fun$)
(declare-fun the_enat$ (Enat$) Nat$)
(declare-fun size_enat$ (Enat$) Nat$)
(declare-fun gen_llength$ (Nat$) A_llist_enat_fun$)
(assert (not (= (ldropn$ n$ (ltake$ m$ xs$)) (ltake$ (fun_app$ (minus$ m$) (enat$ n$)) (ldropn$ n$ xs$)))))
(assert (forall ((?v0 Nat$) (?v1 Nat$)) (= (= (enat$ ?v0) (enat$ ?v1)) (= ?v0 ?v1)) ))
(assert (forall ((?v0 Nat$) (?v1 A_llist$)) (= (fun_app$a llength$ (ldropn$ ?v0 ?v1)) (fun_app$ (minus$ (fun_app$a llength$ ?v1)) (enat$ ?v0))) ))
(assert (forall ((?v0 Nat$) (?v1 A_llist$)) (= (lappend$ (ltake$ (enat$ ?v0) ?v1) (ldropn$ ?v0 ?v1)) ?v1) ))
(assert (forall ((?v0 Enat$) (?v1 Nat$) (?v2 A_llist$)) (= (ltake$ ?v0 (ldropn$ ?v1 ?v2)) (ldropn$ ?v1 (ltake$ (plus$ ?v0 (enat$ ?v1)) ?v2))) ))
(assert (forall ((?v0 Nat$) (?v1 Nat$) (?v2 Nat$)) (= (fun_app$b (minus$a (fun_app$b (minus$a ?v0) ?v1)) ?v2) (fun_app$b (minus$a (fun_app$b (minus$a ?v0) ?v2)) ?v1)) ))
(assert (forall ((?v0 Nat$) (?v1 A_llist$)) (! (= (ldrop$ (enat$ ?v0) ?v1) (ldropn$ ?v0 ?v1)) :pattern ((ldrop$ (enat$ ?v0) ?v1)))))
(assert (forall ((?v0 Enat$)) (! (= (fun_app$ (minus$ (enat$ zero$)) ?v0) (enat$ zero$)) :pattern ((fun_app$ (minus$ (enat$ zero$)) ?v0)))))
(assert (forall ((?v0 Enat$)) (! (= (fun_app$ (minus$ ?v0) (enat$ zero$)) ?v0) :pattern ((minus$ ?v0)))))
(assert (forall ((?v0 Nat$) (?v1 Nat$) (?v2 Nat$)) (= (= (fun_app$b (plus$a ?v0) ?v1) (fun_app$b (plus$a ?v2) ?v1)) (= ?v0 ?v2)) ))
(assert (forall ((?v0 Nat$) (?v1 Nat$) (?v2 Nat$)) (= (= (fun_app$b (plus$a ?v0) ?v1) (fun_app$b (plus$a ?v0) ?v2)) (= ?v1 ?v2)) ))
(assert (forall ((?v0 Nat$)) (= (fun_app$b (plus$a ?v0) zero$) ?v0) ))
(assert (forall ((?v0 Enat$)) (= (plus$ ?v0 zero$a) ?v0) ))
(assert (forall ((?v0 Nat$)) (= (fun_app$b (plus$a zero$) ?v0) ?v0) ))
(assert (forall ((?v0 Enat$)) (= (plus$ zero$a ?v0) ?v0) ))
(assert (forall ((?v0 Nat$)) (= (fun_app$b (minus$a zero$) ?v0) zero$) ))
(assert (forall ((?v0 Nat$)) (! (= (fun_app$b (minus$a ?v0) ?v0) zero$) :pattern ((minus$a ?v0)))))
(assert (forall ((?v0 Nat$)) (= (fun_app$b (minus$a ?v0) zero$) ?v0) ))
(assert (forall ((?v0 Nat$) (?v1 Nat$)) (= (fun_app$b (minus$a (fun_app$b (plus$a ?v0) ?v1)) ?v0) ?v1) ))
(assert (forall ((?v0 Nat$) (?v1 Nat$)) (= (fun_app$b (minus$a (fun_app$b (plus$a ?v0) ?v1)) ?v1) ?v0) ))
(assert (forall ((?v0 Nat$) (?v1 Nat$) (?v2 Nat$)) (= (fun_app$b (minus$a (fun_app$b (plus$a ?v0) ?v1)) (fun_app$b (plus$a ?v0) ?v2)) (fun_app$b (minus$a ?v1) ?v2)) ))
(assert (forall ((?v0 Nat$) (?v1 Nat$) (?v2 Nat$)) (= (fun_app$b (minus$a (fun_app$b (plus$a ?v0) ?v1)) (fun_app$b (plus$a ?v2) ?v1)) (fun_app$b (minus$a ?v0) ?v2)) ))
(assert (forall ((?v0 A_llist$)) (! (= (ldropn$ zero$ ?v0) ?v0) :pattern ((ldropn$ zero$ ?v0)))))
(assert (forall ((?v0 Nat$) (?v1 Nat$)) (! (= (fun_app$ (minus$ (enat$ ?v0)) (enat$ ?v1)) (enat$ (fun_app$b (minus$a ?v0) ?v1))) :pattern ((fun_app$ (minus$ (enat$ ?v0)) (enat$ ?v1))))))
(assert (forall ((?v0 Enat$) (?v1 Enat$) (?v2 A_llist$)) (= (ldrop$ ?v0 (ldrop$ ?v1 ?v2)) (ldrop$ (plus$ ?v0 ?v1) ?v2)) ))
(assert (forall ((?v0 Nat$) (?v1 Nat$)) (= (fun_app$b (minus$a ?v0) (fun_app$b (plus$a ?v0) ?v1)) zero$) ))
(assert (forall ((?v0 A_llist$) (?v1 A_llist$)) (= (fun_app$a llength$ (lappend$ ?v0 ?v1)) (plus$ (fun_app$a llength$ ?v0) (fun_app$a llength$ ?v1))) ))
(assert (forall ((?v0 Nat$)) (= (= zero$ ?v0) (= ?v0 zero$)) ))
(assert (forall ((?v0 Enat$)) (= (= zero$a ?v0) (= ?v0 zero$a)) ))
(assert (forall ((?v0 Enat$) (?v1 Enat$) (?v2 Enat$)) (= (plus$ (plus$ ?v0 ?v1) ?v2) (plus$ ?v0 (plus$ ?v1 ?v2))) ))
(assert (forall ((?v0 Nat$) (?v1 Nat$) (?v2 Nat$)) (= (fun_app$b (plus$a (fun_app$b (plus$a ?v0) ?v1)) ?v2) (fun_app$b (plus$a ?v0) (fun_app$b (plus$a ?v1) ?v2))) ))
(assert (forall ((?v0 Enat$) (?v1 Enat$) (?v2 Enat$)) (= (plus$ (plus$ ?v0 ?v1) ?v2) (plus$ ?v0 (plus$ ?v1 ?v2))) ))
(assert (forall ((?v0 Nat$) (?v1 Nat$) (?v2 Nat$)) (= (fun_app$b (plus$a (fun_app$b (plus$a ?v0) ?v1)) ?v2) (fun_app$b (plus$a ?v0) (fun_app$b (plus$a ?v1) ?v2))) ))
(assert (forall ((?v0 Enat$) (?v1 Enat$) (?v2 Enat$)) (= (plus$ ?v0 (plus$ ?v1 ?v2)) (plus$ ?v1 (plus$ ?v0 ?v2))) ))
(assert (forall ((?v0 Nat$) (?v1 Nat$) (?v2 Nat$)) (= (fun_app$b (plus$a ?v0) (fun_app$b (plus$a ?v1) ?v2)) (fun_app$b (plus$a ?v1) (fun_app$b (plus$a ?v0) ?v2))) ))
(assert (forall ((?v0 Enat$) (?v1 Enat$)) (= (plus$ ?v0 ?v1) (plus$ ?v1 ?v0)) ))
(assert (forall ((?v0 Nat$) (?v1 Nat$)) (= (fun_app$b (plus$a ?v0) ?v1) (fun_app$b (plus$a ?v1) ?v0)) ))
(assert (forall ((?v0 Enat$) (?v1 Enat$) (?v2 A_llist$)) (= (ltake$ (plus$ ?v0 ?v1) ?v2) (lappend$ (ltake$ ?v0 ?v2) (ltake$ ?v1 (ldrop$ ?v0 ?v2)))) ))
(assert (forall ((?v0 A_llist$) (?v1 A_llist$) (?v2 A_llist$)) (= (lappend$ (lappend$ ?v0 ?v1) ?v2) (lappend$ ?v0 (lappend$ ?v1 ?v2))) ))
(assert (forall ((?v0 Nat$)) (= (fun_app$b (plus$a ?v0) zero$) ?v0) ))
(assert (forall ((?v0 Enat$)) (= (plus$ ?v0 zero$a) ?v0) ))
(assert (forall ((?v0 Nat$)) (= (fun_app$b (plus$a zero$) ?v0) ?v0) ))
(assert (forall ((?v0 Enat$)) (= (plus$ zero$a ?v0) ?v0) ))
(assert (forall ((?v0 Nat$) (?v1 Nat$) (?v2 Nat$)) (=> (= (fun_app$b (plus$a ?v0) ?v1) (fun_app$b (plus$a ?v2) ?v1)) (= ?v0 ?v2)) ))
(assert (forall ((?v0 Nat$) (?v1 Nat$) (?v2 Nat$)) (=> (= (fun_app$b (plus$a ?v0) ?v1) (fun_app$b (plus$a ?v0) ?v2)) (= ?v1 ?v2)) ))
(assert (forall ((?v0 Enat$) (?v1 Enat$) (?v2 Enat$) (?v3 Enat$)) (=> (and (= ?v0 ?v1) (= ?v2 ?v3)) (= (plus$ ?v0 ?v2) (plus$ ?v1 ?v3))) ))
(assert (forall ((?v0 Nat$) (?v1 Nat$) (?v2 Nat$) (?v3 Nat$)) (=> (and (= ?v0 ?v1) (= ?v2 ?v3)) (= (fun_app$b (plus$a ?v0) ?v2) (fun_app$b (plus$a ?v1) ?v3))) ))
(assert (forall ((?v0 Nat$) (?v1 Nat$) (?v2 Nat$)) (=> (= (fun_app$b (plus$a ?v0) ?v1) ?v2) (= ?v0 (fun_app$b (minus$a ?v2) ?v1))) ))
(assert (forall ((?v0 Nat$) (?v1 Nat$) (?v2 Nat$)) (= (fun_app$b (minus$a (fun_app$b (minus$a ?v0) ?v1)) ?v2) (fun_app$b (minus$a ?v0) (fun_app$b (plus$a ?v1) ?v2))) ))
(assert (forall ((?v0 Enat$) (?v1 A_llist$)) (= (lappend$ (ltake$ ?v0 ?v1) (ldrop$ ?v0 ?v1)) ?v1) ))
(assert (forall ((?v0 Enat$) (?v1 A_llist$) (?v2 A_llist$)) (= (ltake$ ?v0 (lappend$ ?v1 ?v2)) (lappend$ (ltake$ ?v0 ?v1) (ltake$ (fun_app$ (minus$ ?v0) (fun_app$a llength$ ?v1)) ?v2))) ))
(assert (forall ((?v0 Enat$) (?v1 Nat$) (?v2 Enat$)) (= (= (plus$ ?v0 (enat$ ?v1)) (plus$ ?v2 (enat$ ?v1))) (= ?v0 ?v2)) ))
(assert (forall ((?v0 Nat$) (?v1 Enat$) (?v2 Enat$)) (= (= (plus$ (enat$ ?v0) ?v1) (plus$ (enat$ ?v0) ?v2)) (= ?v1 ?v2)) ))
(assert (forall ((?v0 Nat$)) (! (= (size_enat$ (enat$ ?v0)) zero$) :pattern ((enat$ ?v0)))))
(assert (forall ((?v0 Nat$)) (! (= (fun_app$b (minus$a ?v0) ?v0) zero$) :pattern ((minus$a ?v0)))))
(assert (forall ((?v0 Nat$)) (! (= (fun_app$b (minus$a zero$) ?v0) zero$) :pattern ((fun_app$b (minus$a zero$) ?v0)))))
(assert (forall ((?v0 Nat$) (?v1 A_llist$)) (! (= (fun_app$a (gen_llength$ ?v0) ?v1) (plus$ (enat$ ?v0) (fun_app$a llength$ ?v1))) :pattern ((fun_app$a (gen_llength$ ?v0) ?v1)))))
(assert (forall ((?v0 Nat$)) (! (= (size$ (enat$ ?v0)) zero$) :pattern ((enat$ ?v0)))))
(assert (forall ((?v0 Nat$)) (! (= (fun_app$b (plus$a ?v0) zero$) ?v0) :pattern ((plus$a ?v0)))))
(assert (forall ((?v0 Nat$) (?v1 Nat$)) (= (= (fun_app$b (plus$a ?v0) ?v1) zero$) (and (= ?v0 zero$) (= ?v1 zero$))) ))
(assert (forall ((?v0 Nat$) (?v1 Nat$) (?v2 Nat$)) (= (fun_app$b (minus$a (fun_app$b (minus$a ?v0) ?v1)) ?v2) (fun_app$b (minus$a ?v0) (fun_app$b (plus$a ?v1) ?v2))) ))
(assert (forall ((?v0 A_llist$)) (= (ldrop$ zero$a ?v0) ?v0) ))
(assert (forall ((?v0 Nat$) (?v1 Nat$) (?v2 A_llist$)) (= (ldropn$ ?v0 (ldropn$ ?v1 ?v2)) (ldropn$ (fun_app$b (plus$a ?v0) ?v1) ?v2)) ))
(assert (forall ((?v0 Enat$)) (= (fun_app$ (minus$ ?v0) zero$a) ?v0) ))
(assert (forall ((?v0 Enat$)) (= (fun_app$ (minus$ zero$a) ?v0) zero$a) ))
(assert (forall ((?v0 Nat$) (?v1 Nat$)) (! (= (plus$ (enat$ ?v0) (enat$ ?v1)) (enat$ (fun_app$b (plus$a ?v0) ?v1))) :pattern ((plus$ (enat$ ?v0) (enat$ ?v1))))))
(assert (forall ((?v0 Nat$) (?v1 Nat$) (?v2 Nat$)) (= (fun_app$b (minus$a (fun_app$b (minus$a ?v0) ?v1)) ?v2) (fun_app$b (minus$a (fun_app$b (minus$a ?v0) ?v2)) ?v1)) ))
(assert (forall ((?v0 Nat$) (?v1 Nat$) (?v2 Nat$)) (= (fun_app$b (minus$a (fun_app$b (plus$a ?v0) ?v1)) (fun_app$b (plus$a ?v2) ?v1)) (fun_app$b (minus$a ?v0) ?v2)) ))
(assert (forall ((?v0 Nat$) (?v1 Nat$) (?v2 Nat$)) (= (fun_app$b (minus$a (fun_app$b (plus$a ?v0) ?v1)) (fun_app$b (plus$a ?v0) ?v2)) (fun_app$b (minus$a ?v1) ?v2)) ))
(assert (forall ((?v0 Nat$) (?v1 Nat$)) (= (fun_app$b (minus$a (fun_app$b (plus$a ?v0) ?v1)) ?v1) ?v0) ))
(assert (forall ((?v0 Nat$) (?v1 Nat$)) (= (fun_app$b (minus$a (fun_app$b (plus$a ?v0) ?v1)) ?v0) ?v1) ))
(assert (forall ((?v0 Nat$) (?v1 Nat$)) (=> (= (fun_app$b (plus$a ?v0) ?v1) ?v0) (= ?v1 zero$)) ))
(assert (forall ((?v0 Nat$) (?v1 Nat$)) (= (fun_app$b (minus$a ?v0) (fun_app$b (plus$a ?v0) ?v1)) zero$) ))
(assert (forall ((?v0 Nat$)) (! (= (fun_app$b (plus$a zero$) ?v0) ?v0) :pattern ((fun_app$b (plus$a zero$) ?v0)))))
(assert (forall ((?v0 Enat$) (?v1 Enat$)) (= (= (plus$ ?v0 ?v1) zero$a) (and (= ?v0 zero$a) (= ?v1 zero$a))) ))
(assert (= zero$a (enat$ zero$)))
(assert (forall ((?v0 Nat$)) (= (= zero$a (enat$ ?v0)) (= ?v0 zero$)) ))
(assert (forall ((?v0 Nat$)) (= (= (enat$ ?v0) zero$a) (= ?v0 zero$)) ))
(assert (forall ((?v0 Nat$) (?v1 Nat$)) (=> (and (= (fun_app$b (minus$a ?v0) ?v1) zero$) (= (fun_app$b (minus$a ?v1) ?v0) zero$)) (= ?v0 ?v1)) ))
(assert (forall ((?v0 Nat$)) (=> (and (=> (= ?v0 zero$) false) (=> (not (= ?v0 zero$)) false)) false) ))
(assert (forall ((?v0 Nat$)) (! (= (fun_app$b (minus$a ?v0) zero$) ?v0) :pattern ((minus$a ?v0)))))
(assert (= llength$ (gen_llength$ zero$)))
(assert (forall ((?v0 Nat$) (?v1 Nat$)) (= (= ?v0 (fun_app$b (plus$a ?v0) ?v1)) (= ?v1 zero$)) ))
(assert (forall ((?v0 A_llist$) (?v1 Enat$) (?v2 A_llist$)) (=> (fun_app$c (less_eq$ (fun_app$a llength$ ?v0)) ?v1) (= (ltake$ ?v1 (lappend$ ?v0 ?v2)) (lappend$ ?v0 (ltake$ (fun_app$ (minus$ ?v1) (fun_app$a llength$ ?v0)) ?v2)))) ))
(assert (forall ((?v0 Enat$) (?v1 A_llist$) (?v2 A_llist$)) (= (ldrop$ ?v0 (lappend$ ?v1 ?v2)) (ite (fun_app$c (less$ ?v0) (fun_app$a llength$ ?v1)) (lappend$ (ldrop$ ?v0 ?v1) ?v2) (ldrop$ (fun_app$ (minus$ ?v0) (fun_app$a llength$ ?v1)) ?v2))) ))
(assert (forall ((?v0 Nat$) (?v1 A_llist$) (?v2 Nat$)) (=> (fun_app$c (less_eq$ (enat$ ?v0)) (fun_app$a llength$ ?v1)) (fun_app$c (less_eq$ (enat$ (fun_app$b (minus$a ?v0) ?v2))) (fun_app$a llength$ (ldropn$ ?v2 ?v1)))) ))
(assert (forall ((?v0 Nat$) (?v1 Nat$) (?v2 Nat$)) (= (fun_app$d (less_eq$a (fun_app$b (plus$a ?v0) ?v1)) (fun_app$b (plus$a ?v2) ?v1)) (fun_app$d (less_eq$a ?v0) ?v2)) ))
(assert (forall ((?v0 Nat$) (?v1 Nat$) (?v2 Nat$)) (= (fun_app$d (less_eq$a (fun_app$b (plus$a ?v0) ?v1)) (fun_app$b (plus$a ?v0) ?v2)) (fun_app$d (less_eq$a ?v1) ?v2)) ))
(assert (forall ((?v0 Nat$) (?v1 Nat$) (?v2 Nat$)) (= (fun_app$d (less$a (fun_app$b (plus$a ?v0) ?v1)) (fun_app$b (plus$a ?v2) ?v1)) (fun_app$d (less$a ?v0) ?v2)) ))
(assert (forall ((?v0 Nat$) (?v1 Nat$) (?v2 Nat$)) (= (fun_app$d (less$a (fun_app$b (plus$a ?v0) ?v1)) (fun_app$b (plus$a ?v0) ?v2)) (fun_app$d (less$a ?v1) ?v2)) ))
(assert (forall ((?v0 Enat$)) (= (fun_app$c (less_eq$ ?v0) zero$a) (= ?v0 zero$a)) ))
(assert (forall ((?v0 Enat$)) (= (fun_app$c (less$ zero$a) ?v0) (not (= ?v0 zero$a))) ))
(assert (forall ((?v0 Nat$) (?v1 Enat$) (?v2 Enat$)) (= (fun_app$c (less$ (plus$ (enat$ ?v0) ?v1)) (plus$ (enat$ ?v0) ?v2)) (fun_app$c (less$ ?v1) ?v2)) ))
(assert (forall ((?v0 Nat$) (?v1 Nat$) (?v2 Nat$)) (= (= (fun_app$b (plus$a ?v0) ?v1) (fun_app$b (plus$a ?v2) ?v1)) (= ?v0 ?v2)) ))
(assert (forall ((?v0 Nat$) (?v1 Nat$) (?v2 Nat$)) (= (= (fun_app$b (plus$a ?v0) ?v1) (fun_app$b (plus$a ?v0) ?v2)) (= ?v1 ?v2)) ))
(assert (forall ((?v0 Enat$)) (=> (and (=> (= ?v0 zero$a) false) (=> (not (= ?v0 zero$a)) false)) false) ))
(assert (forall ((?v0 Enat$)) (fun_app$c (less_eq$ zero$a) ?v0) ))
(assert (forall ((?v0 Enat$)) (not (fun_app$c (less$ ?v0) zero$a)) ))
(assert (forall ((?v0 Enat$) (?v1 Enat$)) (=> (forall ((?v2 Nat$)) (=> (fun_app$c (less$ ?v0) (enat$ ?v2)) (fun_app$c (less$ ?v1) (enat$ ?v2))) ) (fun_app$c (less_eq$ ?v1) ?v0)) ))
(assert (forall ((?v0 Nat$) (?v1 Nat$) (?v2 Nat$) (?v3 Nat$)) (=> (and (fun_app$d (less_eq$a ?v0) ?v1) (fun_app$d (less$a ?v2) ?v3)) (fun_app$d (less$a (fun_app$b (plus$a ?v0) ?v2)) (fun_app$b (plus$a ?v1) ?v3))) ))
(assert (forall ((?v0 Nat$) (?v1 Nat$) (?v2 Nat$) (?v3 Nat$)) (=> (and (fun_app$d (less$a ?v0) ?v1) (fun_app$d (less_eq$a ?v2) ?v3)) (fun_app$d (less$a (fun_app$b (plus$a ?v0) ?v2)) (fun_app$b (plus$a ?v1) ?v3))) ))
(assert (forall ((?v0 Nat$) (?v1 Nat$) (?v2 Nat$) (?v3 Nat$)) (=> (and (fun_app$d (less_eq$a ?v0) ?v1) (fun_app$d (less$a ?v2) ?v3)) (fun_app$d (less$a (fun_app$b (plus$a ?v0) ?v2)) (fun_app$b (plus$a ?v1) ?v3))) ))
(assert (forall ((?v0 Nat$) (?v1 Nat$) (?v2 Nat$) (?v3 Nat$)) (=> (and (fun_app$d (less$a ?v0) ?v1) (fun_app$d (less_eq$a ?v2) ?v3)) (fun_app$d (less$a (fun_app$b (plus$a ?v0) ?v2)) (fun_app$b (plus$a ?v1) ?v3))) ))
(assert (forall ((?v0 Enat_enat_bool_fun_fun$) (?v1 Enat$) (?v2 Enat$)) (=> (and (forall ((?v3 Enat$) (?v4 Enat$)) (=> (fun_app$c (less_eq$ ?v3) ?v4) (fun_app$c (fun_app$e ?v0 ?v3) ?v4)) ) (=> (fun_app$c (fun_app$e ?v0 ?v1) ?v2) (fun_app$c (fun_app$e ?v0 ?v2) ?v1))) (fun_app$c (fun_app$e ?v0 ?v2) ?v1)) ))
(assert (forall ((?v0 Nat_nat_bool_fun_fun$) (?v1 Nat$) (?v2 Nat$)) (=> (and (forall ((?v3 Nat$) (?v4 Nat$)) (=> (fun_app$d (less_eq$a ?v3) ?v4) (fun_app$d (fun_app$f ?v0 ?v3) ?v4)) ) (=> (fun_app$d (fun_app$f ?v0 ?v1) ?v2) (fun_app$d (fun_app$f ?v0 ?v2) ?v1))) (fun_app$d (fun_app$f ?v0 ?v2) ?v1)) ))
(assert (forall ((?v0 Enat_bool_fun$) (?v1 Enat$)) (=> (forall ((?v2 Enat$)) (=> (forall ((?v3 Enat$)) (=> (fun_app$c (less$ ?v3) ?v2) (fun_app$c ?v0 ?v3)) ) (fun_app$c ?v0 ?v2)) ) (fun_app$c ?v0 ?v1)) ))
(assert (forall ((?v0 Nat$) (?v1 Nat$)) (=> (and (fun_app$d (less$a ?v0) zero$) (fun_app$d (less_eq$a ?v1) zero$)) (fun_app$d (less$a (fun_app$b (plus$a ?v0) ?v1)) zero$)) ))
(assert (forall ((?v0 Nat$) (?v1 Nat$) (?v2 Nat$)) (=> (and (fun_app$d (less$a zero$) ?v0) (fun_app$d (less_eq$a ?v1) ?v2)) (fun_app$d (less$a ?v1) (fun_app$b (plus$a ?v0) ?v2))) ))
(assert (forall ((?v0 Nat$) (?v1 Nat$)) (=> (and (fun_app$d (less$a zero$) ?v0) (fun_app$d (less_eq$a zero$) ?v1)) (fun_app$d (less$a zero$) (fun_app$b (plus$a ?v0) ?v1))) ))
(assert (forall ((?v0 Nat$) (?v1 Nat$)) (=> (and (fun_app$d (less_eq$a ?v0) zero$) (fun_app$d (less$a ?v1) zero$)) (fun_app$d (less$a (fun_app$b (plus$a ?v0) ?v1)) zero$)) ))
(assert (forall ((?v0 Nat$) (?v1 Nat$) (?v2 Nat$)) (=> (and (fun_app$d (less_eq$a zero$) ?v0) (fun_app$d (less$a ?v1) ?v2)) (fun_app$d (less$a ?v1) (fun_app$b (plus$a ?v0) ?v2))) ))
(assert (forall ((?v0 Nat$) (?v1 Nat$)) (=> (and (fun_app$d (less_eq$a zero$) ?v0) (fun_app$d (less$a zero$) ?v1)) (fun_app$d (less$a zero$) (fun_app$b (plus$a ?v0) ?v1))) ))
(assert (forall ((?v0 Nat$) (?v1 Nat$) (?v2 Nat$) (?v3 Nat$)) (=> (and (= ?v0 ?v1) (fun_app$d (less$a ?v2) ?v3)) (fun_app$d (less$a (fun_app$b (plus$a ?v0) ?v2)) (fun_app$b (plus$a ?v1) ?v3))) ))
(assert (forall ((?v0 Nat$) (?v1 Nat$) (?v2 Nat$) (?v3 Nat$)) (=> (and (fun_app$d (less$a ?v0) ?v1) (= ?v2 ?v3)) (fun_app$d (less$a (fun_app$b (plus$a ?v0) ?v2)) (fun_app$b (plus$a ?v1) ?v3))) ))
(assert (forall ((?v0 Nat$) (?v1 Nat$) (?v2 Nat$) (?v3 Nat$)) (=> (and (fun_app$d (less$a ?v0) ?v1) (fun_app$d (less$a ?v2) ?v3)) (fun_app$d (less$a (fun_app$b (plus$a ?v0) ?v2)) (fun_app$b (plus$a ?v1) ?v3))) ))
(assert (forall ((?v0 Nat$) (?v1 Nat$) (?v2 Nat$)) (=> (fun_app$d (less$a (fun_app$b (plus$a ?v0) ?v1)) (fun_app$b (plus$a ?v2) ?v1)) (fun_app$d (less$a ?v0) ?v2)) ))
(assert (forall ((?v0 Nat$) (?v1 Nat$) (?v2 Nat$)) (=> (fun_app$d (less$a (fun_app$b (plus$a ?v0) ?v1)) (fun_app$b (plus$a ?v0) ?v2)) (fun_app$d (less$a ?v1) ?v2)) ))
(assert (forall ((?v0 Nat$) (?v1 Nat$) (?v2 Nat$) (?v3 Nat$)) (=> (and (fun_app$d (less$a ?v0) ?v1) (fun_app$d (less$a ?v2) ?v3)) (fun_app$d (less$a (fun_app$b (plus$a ?v0) ?v2)) (fun_app$b (plus$a ?v1) ?v3))) ))
(assert (forall ((?v0 Nat$) (?v1 Nat$) (?v2 Nat$)) (=> (fun_app$d (less$a ?v0) ?v1) (fun_app$d (less$a (fun_app$b (plus$a ?v0) ?v2)) (fun_app$b (plus$a ?v1) ?v2))) ))
(assert (forall ((?v0 Nat$) (?v1 Nat$) (?v2 Nat$)) (=> (fun_app$d (less$a ?v0) ?v1) (fun_app$d (less$a (fun_app$b (plus$a ?v2) ?v0)) (fun_app$b (plus$a ?v2) ?v1))) ))
(assert (forall ((?v0 Nat$) (?v1 Nat$)) (= (fun_app$d (less_eq$a ?v0) ?v1) (exists ((?v2 Nat$)) (= ?v1 (fun_app$b (plus$a ?v0) ?v2)) )) ))
(assert (forall ((?v0 Enat$) (?v1 Enat$) (?v2 Enat$) (?v3 Enat$)) (=> (and (= ?v0 ?v1) (fun_app$c (less_eq$ ?v2) ?v3)) (fun_app$c (less_eq$ (plus$ ?v0 ?v2)) (plus$ ?v1 ?v3))) ))
(assert (forall ((?v0 Nat$) (?v1 Nat$) (?v2 Nat$) (?v3 Nat$)) (=> (and (= ?v0 ?v1) (fun_app$d (less_eq$a ?v2) ?v3)) (fun_app$d (less_eq$a (fun_app$b (plus$a ?v0) ?v2)) (fun_app$b (plus$a ?v1) ?v3))) ))
(assert (forall ((?v0 Enat$) (?v1 Enat$) (?v2 Enat$) (?v3 Enat$)) (=> (and (fun_app$c (less_eq$ ?v0) ?v1) (= ?v2 ?v3)) (fun_app$c (less_eq$ (plus$ ?v0 ?v2)) (plus$ ?v1 ?v3))) ))
(assert (forall ((?v0 Nat$) (?v1 Nat$) (?v2 Nat$) (?v3 Nat$)) (=> (and (fun_app$d (less_eq$a ?v0) ?v1) (= ?v2 ?v3)) (fun_app$d (less_eq$a (fun_app$b (plus$a ?v0) ?v2)) (fun_app$b (plus$a ?v1) ?v3))) ))
(assert (forall ((?v0 Enat$) (?v1 Enat$) (?v2 Enat$) (?v3 Enat$)) (=> (and (fun_app$c (less_eq$ ?v0) ?v1) (fun_app$c (less_eq$ ?v2) ?v3)) (fun_app$c (less_eq$ (plus$ ?v0 ?v2)) (plus$ ?v1 ?v3))) ))
(assert (forall ((?v0 Nat$) (?v1 Nat$) (?v2 Nat$) (?v3 Nat$)) (=> (and (fun_app$d (less_eq$a ?v0) ?v1) (fun_app$d (less_eq$a ?v2) ?v3)) (fun_app$d (less_eq$a (fun_app$b (plus$a ?v0) ?v2)) (fun_app$b (plus$a ?v1) ?v3))) ))
(assert (forall ((?v0 Nat$) (?v1 Nat$) (?v2 Nat$)) (=> (fun_app$d (less_eq$a (fun_app$b (plus$a ?v0) ?v1)) (fun_app$b (plus$a ?v2) ?v1)) (fun_app$d (less_eq$a ?v0) ?v2)) ))
(assert (forall ((?v0 Nat$) (?v1 Nat$) (?v2 Nat$)) (=> (fun_app$d (less_eq$a (fun_app$b (plus$a ?v0) ?v1)) (fun_app$b (plus$a ?v0) ?v2)) (fun_app$d (less_eq$a ?v1) ?v2)) ))
(assert (forall ((?v0 Enat$) (?v1 Enat$) (?v2 Enat$) (?v3 Enat$)) (=> (and (fun_app$c (less_eq$ ?v0) ?v1) (fun_app$c (less_eq$ ?v2) ?v3)) (fun_app$c (less_eq$ (plus$ ?v0 ?v2)) (plus$ ?v1 ?v3))) ))
(assert (forall ((?v0 Nat$) (?v1 Nat$) (?v2 Nat$) (?v3 Nat$)) (=> (and (fun_app$d (less_eq$a ?v0) ?v1) (fun_app$d (less_eq$a ?v2) ?v3)) (fun_app$d (less_eq$a (fun_app$b (plus$a ?v0) ?v2)) (fun_app$b (plus$a ?v1) ?v3))) ))
(assert (forall ((?v0 Enat$) (?v1 Enat$) (?v2 Enat$)) (=> (fun_app$c (less_eq$ ?v0) ?v1) (fun_app$c (less_eq$ (plus$ ?v0 ?v2)) (plus$ ?v1 ?v2))) ))
(assert (forall ((?v0 Nat$) (?v1 Nat$) (?v2 Nat$)) (=> (fun_app$d (less_eq$a ?v0) ?v1) (fun_app$d (less_eq$a (fun_app$b (plus$a ?v0) ?v2)) (fun_app$b (plus$a ?v1) ?v2))) ))
(assert (forall ((?v0 Enat$) (?v1 Enat$) (?v2 Enat$)) (=> (fun_app$c (less_eq$ ?v0) ?v1) (fun_app$c (less_eq$ (plus$ ?v2 ?v0)) (plus$ ?v2 ?v1))) ))
(assert (forall ((?v0 Nat$) (?v1 Nat$) (?v2 Nat$)) (=> (fun_app$d (less_eq$a ?v0) ?v1) (fun_app$d (less_eq$a (fun_app$b (plus$a ?v2) ?v0)) (fun_app$b (plus$a ?v2) ?v1))) ))
(assert (forall ((?v0 Enat$) (?v1 Nat$)) (=> (fun_app$c (less$ ?v0) (enat$ ?v1)) (exists ((?v2 Nat$)) (= ?v0 (enat$ ?v2)) )) ))
(assert (forall ((?v0 Enat$) (?v1 Nat$)) (=> (fun_app$c (less_eq$ ?v0) (enat$ ?v1)) (exists ((?v2 Nat$)) (= ?v0 (enat$ ?v2)) )) ))
(assert (forall ((?v0 Enat$) (?v1 A_llist$) (?v2 A_llist$) (?v3 Enat$)) (=> (and (= (ltake$ ?v0 ?v1) (ltake$ ?v0 ?v2)) (fun_app$c (less_eq$ ?v3) ?v0)) (= (ltake$ ?v3 ?v1) (ltake$ ?v3 ?v2))) ))
(assert (forall ((?v0 Enat$) (?v1 Enat$)) (fun_app$c (less_eq$ ?v0) (plus$ ?v0 ?v1)) ))
(assert (forall ((?v0 Enat$) (?v1 Enat$)) (fun_app$c (less_eq$ ?v0) (plus$ ?v1 ?v0)) ))
(assert (forall ((?v0 Enat$) (?v1 Enat$) (?v2 Enat$)) (=> (fun_app$c (less_eq$ ?v0) ?v1) (fun_app$c (less_eq$ (fun_app$ (minus$ ?v0) ?v2)) (fun_app$ (minus$ ?v1) ?v2))) ))
(assert (forall ((?v0 Enat$) (?v1 Enat$) (?v2 Enat$)) (=> (and (fun_app$c (less_eq$ ?v0) ?v1) (fun_app$c (less_eq$ ?v0) ?v2)) (= (= (fun_app$ (minus$ ?v1) ?v0) (fun_app$ (minus$ ?v2) ?v0)) (= ?v1 ?v2))) ))
(assert (forall ((?v0 Nat$) (?v1 Nat$)) (=> (and (fun_app$d (less$a ?v0) zero$) (fun_app$d (less$a ?v1) zero$)) (fun_app$d (less$a (fun_app$b (plus$a ?v0) ?v1)) zero$)) ))
(assert (forall ((?v0 Nat$) (?v1 Nat$)) (=> (and (fun_app$d (less$a zero$) ?v0) (fun_app$d (less$a zero$) ?v1)) (fun_app$d (less$a zero$) (fun_app$b (plus$a ?v0) ?v1))) ))
(assert (forall ((?v0 Nat$) (?v1 Nat$)) (=> (and (fun_app$d (less_eq$a ?v0) zero$) (fun_app$d (less_eq$a ?v1) zero$)) (fun_app$d (less_eq$a (fun_app$b (plus$a ?v0) ?v1)) zero$)) ))
(assert (forall ((?v0 Nat$) (?v1 Nat$) (?v2 Nat$)) (=> (and (fun_app$d (less_eq$a zero$) ?v0) (fun_app$d (less_eq$a ?v1) ?v2)) (fun_app$d (less_eq$a ?v1) (fun_app$b (plus$a ?v2) ?v0))) ))
(assert (forall ((?v0 Nat$) (?v1 Nat$) (?v2 Nat$)) (=> (and (fun_app$d (less_eq$a zero$) ?v0) (fun_app$d (less_eq$a ?v1) ?v2)) (fun_app$d (less_eq$a ?v1) (fun_app$b (plus$a ?v0) ?v2))) ))
(assert (forall ((?v0 Nat$) (?v1 Nat$)) (=> (and (fun_app$d (less_eq$a zero$) ?v0) (fun_app$d (less_eq$a zero$) ?v1)) (= (= (fun_app$b (plus$a ?v0) ?v1) zero$) (and (= ?v0 zero$) (= ?v1 zero$)))) ))
(assert (forall ((?v0 Nat$) (?v1 Nat$)) (=> (and (fun_app$d (less_eq$a zero$) ?v0) (fun_app$d (less_eq$a zero$) ?v1)) (fun_app$d (less_eq$a zero$) (fun_app$b (plus$a ?v0) ?v1))) ))
(assert (forall ((?v0 Nat$) (?v1 Nat$) (?v2 Nat$)) (=> (and (fun_app$d (less_eq$a ?v0) ?v1) (fun_app$d (less_eq$a ?v0) ?v1)) (= (= (fun_app$b (minus$a ?v1) ?v0) ?v2) (= ?v1 (fun_app$b (plus$a ?v2) ?v0)))) ))
(assert (forall ((?v0 Nat$) (?v1 Nat$) (?v2 Nat$)) (=> (fun_app$d (less_eq$a ?v0) ?v1) (= (fun_app$b (plus$a (fun_app$b (minus$a ?v1) ?v0)) ?v2) (fun_app$b (minus$a (fun_app$b (plus$a ?v1) ?v2)) ?v0))) ))
(assert (forall ((?v0 Nat$) (?v1 Nat$)) (=> (fun_app$d (less_eq$a ?v0) ?v1) (= (fun_app$b (plus$a (fun_app$b (minus$a ?v1) ?v0)) ?v0) ?v1)) ))
(assert (forall ((?v0 Nat$) (?v1 Nat$) (?v2 Nat$)) (=> (fun_app$d (less_eq$a ?v0) ?v1) (= (fun_app$b (plus$a ?v2) (fun_app$b (minus$a ?v1) ?v0)) (fun_app$b (minus$a (fun_app$b (plus$a ?v2) ?v1)) ?v0))) ))
(assert (forall ((?v0 Nat$) (?v1 Nat$)) (=> (fun_app$d (less_eq$a ?v0) ?v1) (= (fun_app$b (plus$a ?v0) (fun_app$b (minus$a ?v1) ?v0)) ?v1)) ))
(assert (forall ((?v0 Nat$) (?v1 Nat$) (?v2 Nat$)) (=> (fun_app$d (less_eq$a ?v0) ?v1) (= (fun_app$b (minus$a (fun_app$b (plus$a ?v1) ?v2)) ?v0) (fun_app$b (plus$a (fun_app$b (minus$a ?v1) ?v0)) ?v2))) ))
(assert (forall ((?v0 Nat$) (?v1 Nat$) (?v2 Nat$)) (=> (fun_app$d (less_eq$a ?v0) ?v1) (= (fun_app$b (minus$a (fun_app$b (plus$a ?v2) ?v1)) ?v0) (fun_app$b (plus$a ?v2) (fun_app$b (minus$a ?v1) ?v0)))) ))
(assert (forall ((?v0 Nat$) (?v1 Nat$) (?v2 Nat$)) (=> (fun_app$d (less_eq$a ?v0) ?v1) (= (fun_app$b (minus$a ?v2) (fun_app$b (minus$a ?v1) ?v0)) (fun_app$b (minus$a (fun_app$b (plus$a ?v2) ?v0)) ?v1))) ))
(assert (forall ((?v0 Nat$) (?v1 Nat$) (?v2 Nat$)) (=> (fun_app$d (less_eq$a ?v0) ?v1) (= (fun_app$d (less_eq$a ?v2) (fun_app$b (minus$a ?v1) ?v0)) (fun_app$d (less_eq$a (fun_app$b (plus$a ?v2) ?v0)) ?v1))) ))
(assert (forall ((?v0 Nat$) (?v1 Nat$) (?v2 Nat$)) (=> (fun_app$d (less_eq$a ?v0) ?v1) (fun_app$d (less_eq$a ?v2) (fun_app$b (minus$a (fun_app$b (plus$a ?v1) ?v2)) ?v0))) ))
(assert (forall ((?v0 Nat$) (?v1 Enat$) (?v2 Nat$)) (=> (fun_app$c (less$ (enat$ ?v0)) ?v1) (fun_app$c (less$ (enat$ (fun_app$b (plus$a ?v2) ?v0))) (plus$ (enat$ ?v2) ?v1))) ))
(assert (forall ((?v0 A_llist$) (?v1 Enat$)) (! (=> (fun_app$c (less_eq$ (fun_app$a llength$ ?v0)) ?v1) (= (ltake$ ?v1 ?v0) ?v0)) :pattern ((ltake$ ?v1 ?v0)))))
(assert (forall ((?v0 Enat$) (?v1 A_llist$) (?v2 A_llist$)) (=> (fun_app$c (less_eq$ ?v0) (fun_app$a llength$ ?v1)) (= (ltake$ ?v0 (lappend$ ?v1 ?v2)) (ltake$ ?v0 ?v1))) ))
(assert (forall ((?v0 Nat$) (?v1 Nat$)) (=> (fun_app$d (less_eq$a ?v0) ?v1) (= (fun_app$b (plus$a (fun_app$b (minus$a ?v1) ?v0)) ?v0) ?v1)) ))
(assert (forall ((?v0 Nat$) (?v1 Nat$)) (=> (fun_app$d (less_eq$a ?v0) ?v1) (= (fun_app$b (plus$a ?v0) (fun_app$b (minus$a ?v1) ?v0)) ?v1)) ))
(assert (forall ((?v0 Nat$) (?v1 A_llist$) (?v2 A_llist$)) (= (ldropn$ ?v0 (lappend$ ?v1 ?v2)) (ite (fun_app$c (less$ (enat$ ?v0)) (fun_app$a llength$ ?v1)) (lappend$ (ldropn$ ?v0 ?v1) ?v2) (ldropn$ (fun_app$b (minus$a ?v0) (the_enat$ (fun_app$a llength$ ?v1))) ?v2))) ))
(assert (forall ((?v0 A_llist$) (?v1 Nat$) (?v2 A_llist$)) (=> (fun_app$c (less_eq$ (fun_app$a llength$ ?v0)) (enat$ ?v1)) (= (ldropn$ ?v1 (lappend$ ?v0 ?v2)) (ldropn$ (fun_app$b (minus$a ?v1) (the_enat$ (fun_app$a llength$ ?v0))) ?v2))) ))
(assert (forall ((?v0 Nat$) (?v1 Nat$)) (=> (not (fun_app$d (less$a ?v0) ?v1)) (= (fun_app$b (plus$a ?v1) (fun_app$b (minus$a ?v0) ?v1)) ?v0)) ))
(assert (forall ((?v0 Nat$)) (! (= (fun_app$d (less$a ?v0) zero$) false) :pattern ((less$a ?v0)))))
(assert (forall ((?v0 Nat$)) (= (not (fun_app$d (less$a zero$) ?v0)) (= ?v0 zero$)) ))
(assert (forall ((?v0 Nat$)) (= (not (= ?v0 zero$)) (fun_app$d (less$a zero$) ?v0)) ))
(assert (forall ((?v0 Nat$)) (fun_app$d (less_eq$a zero$) ?v0) ))
(assert (forall ((?v0 Nat$)) (! (= (fun_app$d (less_eq$a ?v0) zero$) (= ?v0 zero$)) :pattern ((less_eq$a ?v0)))))
(assert (forall ((?v0 Nat$) (?v1 Nat$) (?v2 Nat$)) (= (fun_app$d (less$a (fun_app$b (plus$a ?v0) ?v1)) (fun_app$b (plus$a ?v0) ?v2)) (fun_app$d (less$a ?v1) ?v2)) ))
(assert (forall ((?v0 Nat$) (?v1 Nat$) (?v2 Nat$)) (= (fun_app$d (less_eq$a (fun_app$b (plus$a ?v0) ?v1)) (fun_app$b (plus$a ?v0) ?v2)) (fun_app$d (less_eq$a ?v1) ?v2)) ))
(assert (forall ((?v0 Nat$) (?v1 Nat$)) (=> (fun_app$d (less_eq$a ?v0) ?v1) (= (fun_app$b (minus$a ?v1) (fun_app$b (minus$a ?v1) ?v0)) ?v0)) ))
(assert (forall ((?v0 Nat$) (?v1 Nat$)) (= (fun_app$d (less$a zero$) (fun_app$b (plus$a ?v0) ?v1)) (or (fun_app$d (less$a zero$) ?v0) (fun_app$d (less$a zero$) ?v1))) ))
(assert (forall ((?v0 Nat$) (?v1 Nat$)) (= (fun_app$d (less$a zero$) (fun_app$b (minus$a ?v0) ?v1)) (fun_app$d (less$a ?v1) ?v0)) ))
(assert (forall ((?v0 Nat$) (?v1 Nat$)) (! (=> (fun_app$d (less_eq$a ?v0) ?v1) (= (fun_app$b (minus$a ?v0) ?v1) zero$)) :pattern ((fun_app$b (minus$a ?v0) ?v1)))))
(assert (forall ((?v0 Nat$) (?v1 Nat$)) (= (= (fun_app$b (minus$a ?v0) ?v1) zero$) (fun_app$d (less_eq$a ?v0) ?v1)) ))
(assert (forall ((?v0 Nat$) (?v1 Nat$) (?v2 Nat$)) (=> (fun_app$d (less_eq$a ?v0) ?v1) (= (fun_app$b (plus$a (fun_app$b (minus$a ?v1) ?v0)) ?v2) (fun_app$b (minus$a (fun_app$b (plus$a ?v1) ?v2)) ?v0))) ))
(assert (forall ((?v0 Nat$) (?v1 Nat$) (?v2 Nat$)) (=> (fun_app$d (less_eq$a ?v0) ?v1) (= (fun_app$b (plus$a ?v2) (fun_app$b (minus$a ?v1) ?v0)) (fun_app$b (minus$a (fun_app$b (plus$a ?v2) ?v1)) ?v0))) ))
(assert (forall ((?v0 Nat$) (?v1 Nat$)) (! (= (fun_app$c (less_eq$ (enat$ ?v0)) (enat$ ?v1)) (fun_app$d (less_eq$a ?v0) ?v1)) :pattern ((fun_app$c (less_eq$ (enat$ ?v0)) (enat$ ?v1))))))
(assert (forall ((?v0 Nat$) (?v1 Nat$)) (! (= (fun_app$c (less$ (enat$ ?v0)) (enat$ ?v1)) (fun_app$d (less$a ?v0) ?v1)) :pattern ((fun_app$c (less$ (enat$ ?v0)) (enat$ ?v1))))))
(assert (= (the_enat$ zero$a) zero$))
(assert (forall ((?v0 Nat_nat_fun$) (?v1 Nat$) (?v2 Nat$)) (=> (forall ((?v3 Nat$) (?v4 Nat$)) (=> (fun_app$d (less$a ?v3) ?v4) (fun_app$d (less$a (fun_app$b ?v0 ?v3)) (fun_app$b ?v0 ?v4))) ) (fun_app$d (less_eq$a (fun_app$b (plus$a (fun_app$b ?v0 ?v1)) ?v2)) (fun_app$b ?v0 (fun_app$b (plus$a ?v1) ?v2)))) ))
(assert (forall ((?v0 Nat$) (?v1 Nat$) (?v2 Nat$)) (=> (fun_app$d (less$a (fun_app$b (plus$a ?v0) ?v1)) ?v2) (fun_app$d (less$a ?v0) ?v2)) ))
(assert (forall ((?v0 Nat$) (?v1 Nat$) (?v2 Nat$) (?v3 Nat$)) (=> (and (fun_app$d (less$a ?v0) ?v1) (= (fun_app$b (plus$a ?v2) ?v1) (fun_app$b (plus$a ?v0) ?v3))) (fun_app$d (less$a ?v2) ?v3)) ))
(assert (forall ((?v0 Nat$) (?v1 Nat$) (?v2 Nat$) (?v3 Nat$)) (=> (and (fun_app$d (less$a ?v0) ?v1) (fun_app$d (less$a ?v2) ?v3)) (fun_app$d (less$a (fun_app$b (plus$a ?v0) ?v2)) (fun_app$b (plus$a ?v1) ?v3))) ))
(assert (forall ((?v0 Nat$) (?v1 Nat$) (?v2 Nat$)) (=> (and (fun_app$d (less$a ?v0) ?v1) (fun_app$d (less_eq$a ?v2) ?v0)) (fun_app$d (less$a (fun_app$b (minus$a ?v0) ?v2)) (fun_app$b (minus$a ?v1) ?v2))) ))
(assert (forall ((?v0 Nat$) (?v1 Nat$) (?v2 Nat$)) (=> (fun_app$d (less$a ?v0) ?v1) (fun_app$d (less$a (fun_app$b (plus$a ?v0) ?v2)) (fun_app$b (plus$a ?v1) ?v2))) ))
(assert (forall ((?v0 Nat$) (?v1 Nat$) (?v2 Nat$)) (=> (fun_app$d (less$a ?v0) ?v1) (fun_app$d (less$a ?v0) (fun_app$b (plus$a ?v2) ?v1))) ))
(assert (forall ((?v0 Nat$) (?v1 Nat$) (?v2 Nat$)) (=> (fun_app$d (less$a ?v0) ?v1) (fun_app$d (less$a ?v0) (fun_app$b (plus$a ?v1) ?v2))) ))
(assert (forall ((?v0 Nat$) (?v1 Nat$) (?v2 Nat$)) (=> (and (fun_app$d (less_eq$a ?v0) ?v1) (fun_app$d (less_eq$a ?v0) ?v2)) (= (fun_app$d (less$a (fun_app$b (minus$a ?v1) ?v0)) (fun_app$b (minus$a ?v2) ?v0)) (fun_app$d (less$a ?v1) ?v2))) ))
(assert (forall ((?v0 Nat$) (?v1 Nat$) (?v2 Nat$)) (=> (fun_app$d (less_eq$a ?v0) ?v1) (= (fun_app$d (less$a (fun_app$b (minus$a ?v1) ?v0)) ?v2) (fun_app$d (less$a ?v1) (fun_app$b (plus$a ?v2) ?v0)))) ))
(assert (forall ((?v0 Nat_bool_fun$) (?v1 Nat$)) (=> (and (not (fun_app$d ?v0 zero$)) (fun_app$d ?v0 ?v1)) (exists ((?v2 Nat$)) (and (fun_app$d (less_eq$a ?v2) ?v1) (and (forall ((?v3 Nat$)) (=> (fun_app$d (less$a ?v3) ?v2) (not (fun_app$d ?v0 ?v3))) ) (fun_app$d ?v0 ?v2))) )) ))
(assert (forall ((?v0 Nat$) (?v1 Nat$)) (not (fun_app$d (less$a (fun_app$b (plus$a ?v0) ?v1)) ?v1)) ))
(assert (forall ((?v0 Nat$) (?v1 Nat$)) (not (fun_app$d (less$a (fun_app$b (plus$a ?v0) ?v1)) ?v0)) ))
(assert (forall ((?v0 Nat$)) (=> (=> (= ?v0 zero$) false) (fun_app$d (less$a zero$) ?v0)) ))
(assert (forall ((?v0 Nat$) (?v1 Nat$)) (=> (fun_app$d (less$a ?v0) ?v1) (not (= ?v1 zero$))) ))
(assert (forall ((?v0 Nat$)) (=> (fun_app$d (less$a ?v0) zero$) false) ))
(assert (forall ((?v0 Nat_bool_fun$) (?v1 Nat$)) (=> (and (fun_app$d ?v0 zero$) (forall ((?v2 Nat$)) (=> (and (fun_app$d (less$a zero$) ?v2) (not (fun_app$d ?v0 ?v2))) (exists ((?v3 Nat$)) (and (fun_app$d (less$a ?v3) ?v2) (not (fun_app$d ?v0 ?v3))) )) )) (fun_app$d ?v0 ?v1)) ))
(assert (forall ((?v0 Nat$)) (not (fun_app$d (less$a ?v0) zero$)) ))
(assert (forall ((?v0 Nat$)) (! (= (fun_app$d (less_eq$a zero$) ?v0) true) :pattern ((fun_app$d (less_eq$a zero$) ?v0)))))
(assert (forall ((?v0 Nat$) (?v1 Nat$) (?v2 Nat$)) (=> (and (fun_app$d (less$a ?v0) ?v1) (fun_app$d (less$a ?v0) ?v2)) (fun_app$d (less$a (fun_app$b (minus$a ?v2) ?v1)) (fun_app$b (minus$a ?v2) ?v0))) ))
(assert (forall ((?v0 Nat$) (?v1 Nat$) (?v2 Nat$)) (=> (fun_app$d (less$a ?v0) ?v1) (fun_app$d (less$a (fun_app$b (minus$a ?v0) ?v2)) ?v1)) ))
(assert (forall ((?v0 Nat$) (?v1 Nat$)) (fun_app$d (less_eq$a ?v0) (fun_app$b (plus$a ?v0) ?v1)) ))
(assert (forall ((?v0 Nat$) (?v1 Nat$)) (fun_app$d (less_eq$a ?v0) (fun_app$b (plus$a ?v1) ?v0)) ))
(assert (forall ((?v0 Nat$) (?v1 Nat$)) (=> (fun_app$d (less_eq$a ?v0) ?v1) (exists ((?v2 Nat$)) (= ?v1 (fun_app$b (plus$a ?v0) ?v2)) )) ))
(check-sat)
(exit)

